SECTION Graph 
Nodes 50
Edges 885
E 1 3 93
E 1 4 78
E 1 5 88
E 1 6 66
E 1 7 92
E 1 8 52
E 1 9 57
E 1 11 10
E 1 12 77
E 1 13 1
E 1 14 95
E 1 16 87
E 1 17 1
E 1 18 10
E 1 19 6
E 1 22 41
E 1 23 68
E 1 24 20
E 1 26 23
E 1 27 31
E 1 28 61
E 1 29 54
E 1 30 57
E 1 31 34
E 1 32 3
E 1 33 13
E 1 34 97
E 1 35 4
E 1 36 88
E 1 37 28
E 1 41 17
E 1 42 19
E 1 43 15
E 1 44 50
E 1 45 85
E 1 48 38
E 1 49 4
E 1 50 57
E 2 3 4
E 2 4 93
E 2 5 78
E 2 6 70
E 2 9 68
E 2 10 65
E 2 11 99
E 2 12 73
E 2 13 14
E 2 14 69
E 2 15 76
E 2 16 24
E 2 20 47
E 2 21 56
E 2 22 3
E 2 23 92
E 2 24 61
E 2 25 73
E 2 27 21
E 2 28 100
E 2 29 94
E 2 30 43
E 2 31 46
E 2 32 44
E 2 33 77
E 2 34 18
E 2 35 74
E 2 37 44
E 2 38 62
E 2 39 33
E 2 40 59
E 2 41 70
E 2 43 56
E 2 44 87
E 2 46 39
E 2 47 64
E 2 50 8
E 3 4 36
E 3 5 53
E 3 6 35
E 3 7 92
E 3 9 55
E 3 10 59
E 3 11 88
E 3 12 94
E 3 13 23
E 3 14 76
E 3 15 75
E 3 16 56
E 3 17 52
E 3 18 15
E 3 20 7
E 3 22 89
E 3 24 70
E 3 25 49
E 3 26 47
E 3 27 9
E 3 29 28
E 3 30 13
E 3 32 34
E 3 33 51
E 3 37 64
E 3 38 4
E 3 39 25
E 3 40 56
E 3 41 81
E 3 42 10
E 3 43 47
E 3 46 8
E 3 47 80
E 3 48 36
E 3 49 26
E 3 50 64
E 4 5 53
E 4 7 99
E 4 8 4
E 4 9 21
E 4 10 24
E 4 11 92
E 4 12 36
E 4 13 40
E 4 14 7
E 4 15 1
E 4 16 72
E 4 17 67
E 4 19 33
E 4 20 24
E 4 25 22
E 4 26 83
E 4 28 15
E 4 29 70
E 4 30 59
E 4 33 42
E 4 34 93
E 4 35 57
E 4 36 66
E 4 37 71
E 4 38 4
E 4 39 77
E 4 42 44
E 4 43 21
E 4 45 62
E 4 46 34
E 4 47 98
E 4 49 16
E 4 50 52
E 5 8 71
E 5 9 53
E 5 10 63
E 5 14 83
E 5 15 13
E 5 16 3
E 5 17 16
E 5 18 90
E 5 19 24
E 5 20 49
E 5 21 40
E 5 22 23
E 5 23 42
E 5 25 11
E 5 26 56
E 5 29 24
E 5 30 62
E 5 31 15
E 5 32 52
E 5 33 93
E 5 34 47
E 5 36 88
E 5 37 42
E 5 39 51
E 5 40 97
E 5 41 62
E 5 44 26
E 5 47 82
E 5 48 81
E 5 50 25
E 6 7 51
E 6 8 67
E 6 9 89
E 6 12 87
E 6 13 44
E 6 14 93
E 6 15 33
E 6 16 33
E 6 18 90
E 6 19 33
E 6 20 44
E 6 21 9
E 6 22 98
E 6 24 39
E 6 25 24
E 6 28 81
E 6 29 81
E 6 31 20
E 6 32 32
E 6 33 68
E 6 35 85
E 6 36 3
E 6 37 68
E 6 38 72
E 6 39 13
E 6 40 2
E 6 41 17
E 6 42 37
E 6 43 15
E 6 44 74
E 6 45 21
E 6 46 44
E 7 8 37
E 7 9 4
E 7 11 1
E 7 12 80
E 7 13 28
E 7 14 13
E 7 16 18
E 7 17 3
E 7 18 22
E 7 19 77
E 7 21 83
E 7 22 28
E 7 23 23
E 7 24 60
E 7 26 11
E 7 28 1
E 7 32 49
E 7 33 22
E 7 34 48
E 7 35 53
E 7 37 35
E 7 38 56
E 7 39 25
E 7 41 2
E 7 42 6
E 7 43 60
E 7 44 17
E 7 45 38
E 7 46 50
E 7 48 91
E 7 49 77
E 7 50 72
E 8 9 82
E 8 10 50
E 8 11 43
E 8 12 28
E 8 15 41
E 8 16 13
E 8 18 85
E 8 19 8
E 8 20 86
E 8 21 27
E 8 22 27
E 8 23 2
E 8 24 75
E 8 25 85
E 8 26 9
E 8 27 59
E 8 28 46
E 8 29 22
E 8 30 81
E 8 31 36
E 8 32 42
E 8 34 96
E 8 35 82
E 8 36 97
E 8 37 77
E 8 38 13
E 8 39 48
E 8 43 9
E 8 45 17
E 8 46 23
E 8 47 6
E 8 48 41
E 9 10 13
E 9 13 35
E 9 14 34
E 9 16 75
E 9 17 44
E 9 18 100
E 9 19 37
E 9 21 49
E 9 23 30
E 9 24 56
E 9 25 77
E 9 28 92
E 9 29 74
E 9 31 30
E 9 32 87
E 9 34 20
E 9 35 38
E 9 36 29
E 9 37 28
E 9 38 29
E 9 39 81
E 9 40 57
E 9 41 78
E 9 42 53
E 9 43 95
E 9 44 37
E 9 46 81
E 9 50 64
E 10 11 80
E 10 12 20
E 10 13 67
E 10 14 72
E 10 15 23
E 10 20 36
E 10 21 51
E 10 22 87
E 10 23 47
E 10 25 21
E 10 26 33
E 10 28 54
E 10 29 3
E 10 30 78
E 10 32 5
E 10 33 10
E 10 34 72
E 10 37 83
E 10 38 69
E 10 40 80
E 10 41 42
E 10 43 63
E 10 44 62
E 10 47 69
E 10 48 18
E 10 50 6
E 11 12 54
E 11 13 30
E 11 14 87
E 11 15 33
E 11 16 46
E 11 18 16
E 11 19 99
E 11 21 30
E 11 22 35
E 11 23 65
E 11 24 5
E 11 28 41
E 11 29 7
E 11 30 55
E 11 33 5
E 11 34 72
E 11 35 98
E 11 36 76
E 11 37 54
E 11 38 74
E 11 39 17
E 11 40 25
E 11 41 69
E 11 42 62
E 11 44 42
E 11 45 41
E 11 46 32
E 11 49 62
E 11 50 37
E 12 13 2
E 12 15 61
E 12 16 57
E 12 17 90
E 12 18 23
E 12 19 6
E 12 20 24
E 12 21 25
E 12 22 15
E 12 27 87
E 12 28 8
E 12 29 13
E 12 30 84
E 12 31 42
E 12 32 3
E 12 34 21
E 12 35 70
E 12 38 14
E 12 39 47
E 12 41 32
E 12 42 73
E 12 43 29
E 12 44 97
E 12 45 53
E 12 46 88
E 12 49 10
E 12 50 25
E 13 14 82
E 13 15 84
E 13 16 12
E 13 18 47
E 13 19 29
E 13 20 57
E 13 21 57
E 13 22 48
E 13 23 91
E 13 24 14
E 13 25 41
E 13 26 68
E 13 27 19
E 13 28 34
E 13 29 31
E 13 30 73
E 13 33 37
E 13 34 15
E 13 36 1
E 13 37 36
E 13 38 83
E 13 39 61
E 13 40 80
E 13 41 83
E 13 42 31
E 13 44 39
E 13 45 49
E 13 48 9
E 13 49 28
E 13 50 61
E 14 15 99
E 14 16 83
E 14 17 51
E 14 19 95
E 14 20 46
E 14 22 28
E 14 23 51
E 14 24 49
E 14 26 23
E 14 27 21
E 14 28 34
E 14 29 53
E 14 30 47
E 14 31 58
E 14 32 39
E 14 33 1
E 14 35 68
E 14 37 34
E 14 38 80
E 14 39 44
E 14 40 40
E 14 41 92
E 14 42 58
E 14 43 81
E 14 47 61
E 14 49 11
E 14 50 41
E 15 16 99
E 15 17 98
E 15 18 81
E 15 19 2
E 15 21 95
E 15 22 84
E 15 23 48
E 15 24 17
E 15 25 91
E 15 28 53
E 15 29 31
E 15 30 65
E 15 31 3
E 15 32 65
E 15 34 62
E 15 35 72
E 15 36 73
E 15 37 81
E 15 38 56
E 15 39 92
E 15 40 55
E 15 41 36
E 15 42 22
E 15 43 9
E 15 44 56
E 15 45 8
E 15 46 58
E 15 47 32
E 16 17 61
E 16 18 85
E 16 19 22
E 16 20 62
E 16 22 52
E 16 23 5
E 16 24 94
E 16 25 28
E 16 26 8
E 16 27 52
E 16 29 40
E 16 30 65
E 16 31 81
E 16 35 97
E 16 36 40
E 16 37 91
E 16 38 65
E 16 40 77
E 16 42 74
E 16 43 1
E 16 44 51
E 16 45 22
E 16 47 25
E 16 50 60
E 17 18 76
E 17 20 51
E 17 21 35
E 17 22 59
E 17 23 68
E 17 24 65
E 17 25 54
E 17 26 89
E 17 29 89
E 17 31 61
E 17 32 93
E 17 33 85
E 17 34 1
E 17 36 44
E 17 38 87
E 17 39 45
E 17 40 46
E 17 44 36
E 17 45 16
E 17 46 46
E 17 47 58
E 17 49 52
E 17 50 100
E 18 19 38
E 18 20 17
E 18 21 93
E 18 24 38
E 18 27 19
E 18 28 70
E 18 30 86
E 18 31 90
E 18 33 47
E 18 35 82
E 18 37 30
E 18 38 81
E 18 40 55
E 18 41 5
E 18 42 95
E 18 43 57
E 18 44 72
E 18 45 86
E 18 47 47
E 18 48 79
E 18 50 54
E 19 20 31
E 19 23 30
E 19 25 45
E 19 26 83
E 19 28 67
E 19 34 21
E 19 35 49
E 19 38 93
E 19 39 93
E 19 40 77
E 19 41 66
E 19 42 32
E 19 45 46
E 19 46 100
E 19 47 80
E 19 48 90
E 19 49 67
E 19 50 75
E 20 21 20
E 20 22 86
E 20 23 23
E 20 24 54
E 20 26 16
E 20 27 47
E 20 29 30
E 20 30 99
E 20 31 36
E 20 32 33
E 20 33 82
E 20 34 83
E 20 35 81
E 20 36 12
E 20 37 39
E 20 39 75
E 20 41 66
E 20 43 83
E 20 45 75
E 20 47 49
E 20 48 64
E 20 50 6
E 21 23 2
E 21 24 42
E 21 25 73
E 21 26 33
E 21 27 1
E 21 28 83
E 21 29 55
E 21 30 61
E 21 32 35
E 21 33 36
E 21 36 25
E 21 37 11
E 21 38 61
E 21 39 35
E 21 40 72
E 21 42 44
E 21 43 15
E 21 44 16
E 21 45 81
E 21 46 31
E 21 47 100
E 21 48 41
E 22 23 74
E 22 25 99
E 22 27 89
E 22 28 21
E 22 30 2
E 22 31 5
E 22 34 65
E 22 35 75
E 22 39 10
E 22 41 68
E 22 42 51
E 22 46 70
E 22 47 22
E 23 24 86
E 23 26 44
E 23 27 4
E 23 30 55
E 23 31 51
E 23 33 100
E 23 34 88
E 23 35 2
E 23 36 56
E 23 37 54
E 23 38 15
E 23 39 8
E 23 40 66
E 23 41 11
E 23 42 56
E 23 43 100
E 23 44 93
E 23 48 43
E 23 49 43
E 24 25 62
E 24 26 11
E 24 28 80
E 24 29 7
E 24 30 96
E 24 32 93
E 24 33 42
E 24 34 46
E 24 35 12
E 24 36 76
E 24 39 89
E 24 40 77
E 24 42 69
E 24 45 97
E 24 47 99
E 24 48 53
E 24 49 31
E 24 50 14
E 25 26 12
E 25 27 42
E 25 28 15
E 25 29 58
E 25 30 96
E 25 31 59
E 25 32 60
E 25 33 48
E 25 34 69
E 25 37 73
E 25 38 46
E 25 39 92
E 25 40 39
E 25 41 60
E 25 42 44
E 25 43 72
E 25 46 47
E 25 47 41
E 25 48 17
E 25 49 84
E 25 50 18
E 26 27 1
E 26 28 68
E 26 29 7
E 26 30 65
E 26 31 49
E 26 35 58
E 26 36 61
E 26 37 56
E 26 38 68
E 26 40 36
E 26 41 35
E 26 43 62
E 26 44 61
E 26 45 63
E 26 46 27
E 26 47 31
E 26 48 73
E 26 49 34
E 26 50 84
E 27 29 3
E 27 30 42
E 27 31 71
E 27 32 69
E 27 34 53
E 27 35 3
E 27 36 51
E 27 37 57
E 27 39 38
E 27 43 48
E 27 45 20
E 27 47 33
E 27 48 28
E 27 49 27
E 28 29 21
E 28 31 53
E 28 33 59
E 28 35 7
E 28 36 70
E 28 38 30
E 28 40 44
E 28 41 78
E 28 42 73
E 28 45 84
E 28 46 88
E 28 47 92
E 28 49 8
E 28 50 24
E 29 30 47
E 29 31 8
E 29 32 18
E 29 33 17
E 29 34 99
E 29 35 63
E 29 36 75
E 29 37 5
E 29 38 4
E 29 40 11
E 29 41 71
E 29 43 90
E 29 44 82
E 29 45 16
E 29 46 33
E 29 47 86
E 29 49 69
E 29 50 91
E 30 31 80
E 30 32 80
E 30 33 27
E 30 34 87
E 30 36 30
E 30 37 87
E 30 40 16
E 30 41 55
E 30 43 69
E 30 44 85
E 30 45 100
E 30 46 85
E 30 47 90
E 30 48 88
E 30 50 7
E 31 33 36
E 31 34 2
E 31 35 77
E 31 36 70
E 31 37 2
E 31 38 71
E 31 39 9
E 31 40 80
E 31 43 86
E 31 44 26
E 31 46 51
E 31 48 40
E 31 49 34
E 31 50 4
E 32 33 83
E 32 34 28
E 32 35 32
E 32 37 74
E 32 39 69
E 32 40 77
E 32 41 60
E 32 43 67
E 32 44 32
E 32 45 78
E 32 46 1
E 32 48 21
E 32 49 21
E 32 50 92
E 33 34 61
E 33 35 3
E 33 36 12
E 33 39 62
E 33 40 55
E 33 41 84
E 33 42 83
E 33 43 28
E 33 46 36
E 33 47 57
E 33 48 35
E 33 49 72
E 33 50 63
E 34 37 79
E 34 38 2
E 34 41 39
E 34 42 100
E 34 44 36
E 34 46 87
E 34 47 54
E 34 48 60
E 34 49 21
E 34 50 58
E 35 36 39
E 35 37 79
E 35 39 75
E 35 41 58
E 35 42 48
E 35 43 93
E 35 46 78
E 35 47 9
E 35 48 34
E 35 49 37
E 35 50 60
E 36 37 70
E 36 39 11
E 36 40 94
E 36 41 27
E 36 42 29
E 36 43 78
E 36 44 52
E 36 45 53
E 36 46 39
E 36 47 47
E 36 48 23
E 36 49 41
E 37 39 7
E 37 41 67
E 37 43 41
E 37 45 99
E 37 46 55
E 37 47 1
E 37 48 58
E 37 50 85
E 38 39 94
E 38 40 28
E 38 41 25
E 38 42 74
E 38 44 5
E 38 47 4
E 38 48 97
E 38 49 86
E 38 50 9
E 39 40 50
E 39 41 2
E 39 42 4
E 39 43 53
E 39 44 94
E 39 45 60
E 39 46 94
E 39 47 33
E 39 48 36
E 39 49 10
E 40 41 39
E 40 42 35
E 40 43 66
E 40 44 4
E 40 45 62
E 40 46 8
E 40 48 64
E 40 49 51
E 41 43 39
E 41 44 29
E 41 45 12
E 41 46 1
E 41 47 53
E 41 48 79
E 41 49 96
E 42 43 66
E 42 44 29
E 42 46 64
E 42 47 36
E 42 49 18
E 42 50 8
E 43 45 82
E 43 46 14
E 43 47 9
E 43 49 80
E 43 50 85
E 44 45 55
E 44 48 28
E 44 50 65
E 45 46 67
E 45 47 58
E 45 48 85
E 45 49 3
E 46 48 74
E 47 48 31
E 47 49 16
E 48 50 40
E 49 50 65
END 

SECTION Terminals 
Terminals 10
TP 48 26
TP 43 18
TP 36 13
TP 35 5
TP 34 4
END 
